HUN,8,6,102
3,25,1,27,0,29,5,22,4,28,2,27
3,28,2,25,1,22,5,30,0,28,4,30
5,26,3,29,2,24,1,29,4,28,0,29
3,21,4,29,0,27,1,25,5,21,2,26
4,24,2,29,0,22,1,23,5,22,3,29
3,24,4,30,2,21,5,24,1,21,0,29
4,23,3,25,0,30,1,26,2,27,5,24
0,23,5,27,1,26,4,21,2,23,3,25
